Cu 
 1.0000000000000000
     7.6367532368147124    0.0000000000000000    0.0000000000000000
     0.0000000000000000    7.6367532368147124    0.0000000000000000
     0.0000000000000000    0.0000000000000000   10.8000000000000007
 Cu 
  54
Cartesian
  0.0000000000000000  0.0000000000000000  0.0000000000000000
  1.2727922061357855  1.2727922061357855  1.8000000000000000
  0.0000000000000000  0.0000000000000000  3.6000000000000001
  1.2727922061357855  1.2727922061357855  5.4000000000000004
  0.0000000000000000  0.0000000000000000  7.2000000000000002
  1.2727922061357855  1.2727922061357855  9.0000000000000000
  0.0000000000000000  2.5455844122715710  0.0000000000000000
  1.2727922061357855  3.8183766184073562  1.8000000000000000
  0.0000000000000000  2.5455844122715710  3.6000000000000001
  1.2727922061357855  3.8183766184073562  5.4000000000000004
  0.0000000000000000  2.5455844122715710  7.2000000000000002
  1.2727922061357855  3.8183766184073562  9.0000000000000000
  0.0000000000000000  5.0911688245431419  0.0000000000000000
  1.2727922061357855  6.3639610306789276  1.8000000000000000
  0.0000000000000000  5.0911688245431419  3.6000000000000001
  1.2727922061357855  6.3639610306789276  5.4000000000000004
  0.0000000000000000  5.0911688245431419  7.2000000000000002
  1.2727922061357855  6.3639610306789276  9.0000000000000000
  2.5455844122715710  0.0000000000000000  0.0000000000000000
  3.8183766184073562  1.2727922061357855  1.8000000000000000
  2.5455844122715710  0.0000000000000000  3.6000000000000001
  3.8183766184073562  1.2727922061357855  5.4000000000000004
  2.5455844122715710  0.0000000000000000  7.2000000000000002
  3.8183766184073562  1.2727922061357855  9.0000000000000000
  2.5455844122715710  2.5455844122715710  0.0000000000000000
  3.8183766184073562  3.8183766184073562  1.8000000000000000
  2.5455844122715710  2.5455844122715710  3.6000000000000001
  3.8183766184073562  3.8183766184073562  5.4000000000000004
  2.5455844122715710  2.5455844122715710  7.2000000000000002
  3.8183766184073562  3.8183766184073562  9.0000000000000000
  2.5455844122715710  5.0911688245431419  0.0000000000000000
  3.8183766184073562  6.3639610306789276  1.8000000000000000
  2.5455844122715710  5.0911688245431419  3.6000000000000001
  3.8183766184073562  6.3639610306789276  5.4000000000000004
  2.5455844122715710  5.0911688245431419  7.2000000000000002
  3.8183766184073562  6.3639610306789276  9.0000000000000000
  5.0911688245431419  0.0000000000000000  0.0000000000000000
  6.3639610306789276  1.2727922061357855  1.8000000000000000
  5.0911688245431419  0.0000000000000000  3.6000000000000001
  6.3639610306789276  1.2727922061357855  5.4000000000000004
  5.0911688245431419  0.0000000000000000  7.2000000000000002
  6.3639610306789276  1.2727922061357855  9.0000000000000000
  5.0911688245431419  2.5455844122715710  0.0000000000000000
  6.3639610306789276  3.8183766184073562  1.8000000000000000
  5.0911688245431419  2.5455844122715710  3.6000000000000001
  6.3639610306789276  3.8183766184073562  5.4000000000000004
  5.0911688245431419  2.5455844122715710  7.2000000000000002
  6.3639610306789276  3.8183766184073562  9.0000000000000000
  5.0911688245431419  5.0911688245431419  0.0000000000000000
  6.3639610306789276  6.3639610306789276  1.8000000000000000
  5.0911688245431419  5.0911688245431419  3.6000000000000001
  6.3639610306789276  6.3639610306789276  5.4000000000000004
  5.0911688245431419  5.0911688245431419  7.2000000000000002
  6.3639610306789276  6.3639610306789276  9.0000000000000000
